(set-logic QF_LIA)
(declare-fun x0 () Int)
(declare-fun x1 () Int)
(declare-fun x2 () Int)
(declare-fun x3 () Int)
(declare-fun x4 () Int)
(declare-fun x5 () Int)
(declare-fun x6 () Int)
(declare-fun x7 () Int)
(declare-fun x8 () Int)
(declare-fun x9 () Int)
(declare-fun A0 () Bool)
(declare-fun A1 () Bool)
(declare-fun A2 () Bool)
(declare-fun A3 () Bool)
(declare-fun A6 () Bool)
(declare-fun A7 () Bool)
(declare-fun A8 () Bool)
(assert (let ((.def_0 (* 1 x6))) (let ((.def_1 (* 1 x9))) (let ((.def_2 (+ .def_1 .def_0))) (let ((.def_3 (< .def_2 1))) (let ((.def_4 (* (- 1) x9))) (let ((.def_5 (* 1 x8))) (let ((.def_6 (+ .def_5 .def_4))) (let ((.def_7 (< .def_6 (- 1)))) (let ((.def_8 (or .def_7 .def_3))) (let ((.def_9 (not .def_8))) (let ((.def_10 (* (- 1) x4))) (let ((.def_11 (< .def_10 (- 1)))) (let ((.def_12 (not .def_11))) (let ((.def_13 (or A6 .def_12))) (let ((.def_14 (or .def_13 .def_9))) (let ((.def_15 (= .def_11 .def_7))) (let ((.def_16 (* 1 x7))) (let ((.def_17 (< .def_16 (- 1)))) (let ((.def_18 (not .def_17))) (let ((.def_19 (and .def_18 A8))) (let ((.def_20 (and .def_19 .def_15))) (let ((.def_21 (not .def_20))) (let ((.def_22 (and .def_21 .def_14))) (let ((.def_23 (not .def_22))) (let ((.def_24 (* 1 x2))) (let ((.def_25 (+ .def_24 .def_5))) (let ((.def_26 (< .def_25 (- 1)))) (let ((.def_27 (* (- 1) x3))) (let ((.def_28 (< .def_27 (- 1)))) (let ((.def_29 (= .def_28 .def_26))) (let ((.def_30 (not .def_29))) (let ((.def_31 (not A6))) (let ((.def_32 (* (- 1) x0))) (let ((.def_33 (< .def_32 1))) (let ((.def_34 (not .def_33))) (let ((.def_35 (and .def_34 .def_31))) (let ((.def_36 (not .def_35))) (let ((.def_37 (and .def_36 .def_30))) (let ((.def_38 (not .def_37))) (let ((.def_39 (* 1 x1))) (let ((.def_40 (< .def_39 1))) (let ((.def_41 (or A3 .def_40))) (let ((.def_42 (< .def_5 1))) (let ((.def_43 (not A0))) (let ((.def_44 (and .def_43 .def_42))) (let ((.def_45 (and .def_44 .def_41))) (let ((.def_46 (or .def_45 .def_38))) (let ((.def_47 (not .def_46))) (let ((.def_48 (and .def_47 .def_23))) (let ((.def_49 (not .def_48))) (let ((.def_50 (* (- 1) x8))) (let ((.def_51 (+ .def_50 .def_4))) (let ((.def_52 (< .def_51 (- 1)))) (let ((.def_53 (not .def_52))) (let ((.def_54 (and .def_53 .def_43))) (let ((.def_55 (* 1 x0))) (let ((.def_56 (< .def_55 (- 1)))) (let ((.def_57 (and A2 .def_56))) (let ((.def_58 (not .def_57))) (let ((.def_59 (and .def_58 .def_54))) (let ((.def_60 (* (- 1) x6))) (let ((.def_61 (< .def_60 1))) (let ((.def_62 (not .def_61))) (let ((.def_63 (and A2 .def_62))) (let ((.def_64 (not .def_63))) (let ((.def_65 (and A7 .def_28))) (let ((.def_66 (and .def_65 .def_64))) (let ((.def_67 (and .def_66 .def_59))) (let ((.def_68 (not .def_67))) (let ((.def_69 (not A3))) (let ((.def_70 (and .def_69 A1))) (let ((.def_71 (not .def_70))) (let ((.def_72 (* 1 x4))) (let ((.def_73 (+ .def_72 .def_5))) (let ((.def_74 (< .def_73 1))) (let ((.def_75 (not .def_74))) (let ((.def_76 (* (- 1) x1))) (let ((.def_77 (+ .def_76 .def_5))) (let ((.def_78 (< .def_77 (- 1)))) (let ((.def_79 (not .def_78))) (let ((.def_80 (or .def_79 .def_75))) (let ((.def_81 (not .def_80))) (let ((.def_82 (or .def_81 .def_71))) (let ((.def_83 (not .def_82))) (let ((.def_84 (or .def_31 A7))) (let ((.def_85 (< .def_72 1))) (let ((.def_86 (or A2 .def_85))) (let ((.def_87 (or .def_86 .def_84))) (let ((.def_88 (not .def_87))) (let ((.def_89 (and .def_88 .def_83))) (let ((.def_90 (and .def_89 .def_68))) (let ((.def_91 (or .def_90 .def_49))) (let ((.def_92 (<= x9 1))) (let ((.def_93 (<= 0 x9))) (let ((.def_94 (<= x8 1))) (let ((.def_95 (<= 0 x8))) (let ((.def_96 (<= x7 1))) (let ((.def_97 (<= 0 x7))) (let ((.def_98 (<= x6 1))) (let ((.def_99 (<= 0 x6))) (let ((.def_100 (<= x5 1))) (let ((.def_101 (<= 0 x5))) (let ((.def_102 (<= x4 1))) (let ((.def_103 (<= 0 x4))) (let ((.def_104 (<= x3 1))) (let ((.def_105 (<= 0 x3))) (let ((.def_106 (<= x2 1))) (let ((.def_107 (<= 0 x2))) (let ((.def_108 (<= x1 1))) (let ((.def_109 (<= 0 x1))) (let ((.def_110 (<= x0 1))) (let ((.def_111 (<= 0 x0))) (let ((.def_112 (and .def_111 .def_110 .def_109 .def_108 .def_107 .def_106 .def_105 .def_104 .def_103 .def_102 .def_101 .def_100 .def_99 .def_98 .def_97 .def_96 .def_95 .def_94 .def_93 .def_92 .def_91))) .def_112))))))))))))))))))))))))))))))))))))))))))))))))))))))))))))))))))))))))))))))))))))))))))))))))))))))))))))))))))
(check-sat)
